Version identifier: 22.1.1.0 | 2022-11-28 | 9160aff4d
CPXPARAM_ClockType                               1
CPXPARAM_Read_DataCheck                          1
CPXPARAM_Threads                                 1
CPXPARAM_TimeLimit                               7200
CPXPARAM_MIP_Tolerances_AbsMIPGap                0
CPXPARAM_MIP_Tolerances_MIPGap                   0
CPXPARAM_MIP_Tolerances_Integrality              0
Tried aggregator 5 times.
MIP Presolve eliminated 6271 rows and 469 columns.
MIP Presolve modified 138 coefficients.
Aggregator did 117 substitutions.
Reduced MIP has 3600 rows, 3059 columns, and 14732 nonzeros.
Reduced MIP has 3059 binaries, 0 generals, 0 SOSs, and 0 indicators.
Presolve time = 0.03 sec. (21.66 ticks)
Probing time = 0.01 sec. (3.07 ticks)
Tried aggregator 1 time.
Detecting symmetries...
Reduced MIP has 3600 rows, 3059 columns, and 14732 nonzeros.
Reduced MIP has 3059 binaries, 0 generals, 0 SOSs, and 0 indicators.
Presolve time = 0.02 sec. (9.26 ticks)
Probing time = 0.01 sec. (2.95 ticks)
Clique table members: 6419.
MIP emphasis: balance optimality and feasibility.
MIP search method: dynamic search.
Parallel mode: none, using 1 thread.
Root relaxation solution time = 0.49 sec. (417.80 ticks)

        Nodes                                         Cuts/
   Node  Left     Objective  IInf  Best Integer    Best Bound    ItCnt     Gap

      0     0      132.0000   542                    132.0000     3091         
      0     0      132.0000   451                    Cuts: 61     4027         
      0     0      132.0000   582                    Cuts: 52     4878         
*     0+    0                          130.0000      132.0000             1.54%
Detecting symmetries...

Repeating presolve.
Tried aggregator 3 times.
MIP Presolve eliminated 1352 rows and 799 columns.
MIP Presolve modified 1105 coefficients.
Aggregator did 91 substitutions.
Reduced MIP has 2157 rows, 2169 columns, and 8313 nonzeros.
Reduced MIP has 2169 binaries, 0 generals, 0 SOSs, and 0 indicators.
Presolve time = 0.02 sec. (14.67 ticks)
Probing time = 0.00 sec. (2.29 ticks)
Tried aggregator 1 time.
Detecting symmetries...
Reduced MIP has 2157 rows, 2169 columns, and 8313 nonzeros.
Reduced MIP has 2169 binaries, 0 generals, 0 SOSs, and 0 indicators.
Presolve time = 0.01 sec. (5.59 ticks)
Represolve time = 0.06 sec. (31.53 ticks)
Probing time = 0.00 sec. (2.28 ticks)
Clique table members: 2081.
MIP emphasis: balance optimality and feasibility.
MIP search method: dynamic search.
Parallel mode: none, using 1 thread.
Root relaxation solution time = 0.31 sec. (267.28 ticks)

        Nodes                                         Cuts/
   Node  Left     Objective  IInf  Best Integer    Best Bound    ItCnt     Gap

*     0+    0                          130.0000      132.0000             1.54%
      0     0      132.0000   573      130.0000      132.0000     7603    1.54%
      0     0      132.0000   593      130.0000       Cuts: 3     8146    1.54%
Detecting symmetries...
      0     2      132.0000   315      130.0000      132.0000     8146    1.54%
Elapsed time = 4.46 sec. (3551.66 ticks, tree = 0.01 MB, solutions = 1)
      3     5      132.0000   384      130.0000      132.0000    11613    1.54%
     16    18      132.0000   288      130.0000      132.0000    14537    1.54%
     20    22      132.0000   262      130.0000      132.0000    17498    1.54%
*    21     2      integral     0      132.0000      132.0000    17905    0.00%

Clique cuts applied:  7
Zero-half cuts applied:  1

Root node processing (before b&c):
  Real time             =    4.45 sec. (3546.40 ticks)
Sequential b&c:
  Real time             =    1.14 sec. (921.92 ticks)
                          ------------
Total (root+branch&cut) =    5.59 sec. (4468.33 ticks)
Solution is feasible.

---------------------
@@@ MIP_optimal
>>> Benchmark mc2024_track1_130.cnf k 2 OPT 132 TimeCost 6.3432488441467285 TimeSolve 5.6261985301971436 TimeRead 0.006796121597290039 TimeTrans 0.7102541923522949
